c ind 10 119 13 134 135 137 138 140 141 143 0
c ind 144 146 147 15 151 153 16 220 222 25 0
c ind 28 291 39 41 43 45 5 50 52 54 0
c ind 6 64 9 0
p cnf 291 1165
-1 -2 11 0
-1 2 118 0
-100 67 86 0
-101 -102 118 0
-101 102 120 0
-102 -22 103 0
-102 22 56 0
-103 -30 13 0
-103 30 104 0
-104 -32 105 0
-104 32 56 0
-105 -35 106 0
-105 35 107 0
-106 -47 16 0
-106 47 13 0
-107 -56 13 0
-107 56 108 0
-108 -69 13 0
-108 69 109 0
-109 -74 13 0
-109 74 110 0
-11 -12 14 0
-11 12 17 0
-110 -78 13 0
-110 78 111 0
-111 -82 112 0
-111 82 113 0
-112 -85 13 0
-112 85 56 0
-113 -89 13 0
-113 89 114 0
-114 -92 13 0
-114 92 115 0
-115 -95 13 0
-115 95 116 0
-116 -98 117 0
-116 98 13 0
-117 -100 13 0
-117 100 56 0
-118 -119 15 0
-118 -15 119 0
-12 -13 9 0
-12 -9 13 0
-120 -121 118 0
-120 121 164 0
-121 -22 122 0
-121 22 69 0
-122 -30 13 0
-122 30 123 0
-123 -32 124 0
-123 32 69 0
-124 -35 13 0
-124 35 125 0
-125 -56 126 0
-125 56 154 0
-126 -61 13 0
-126 61 127 0
-127 -66 128 0
-127 66 13 0
-128 -129 148 0
-128 129 13 0
-129 130 0
-129 145 0
-13 0
-130 131 0
-130 142 0
-131 132 0
-131 139 0
-132 133 0
-132 136 0
-133 -134 135 0
-133 -135 134 0
-136 -137 138 0
-136 -138 137 0
-139 -140 141 0
-139 -141 140 0
-14 -15 16 0
-14 -16 15 0
-142 -143 144 0
-142 -144 143 0
-145 -146 147 0
-145 -147 146 0
-148 -149 13 0
-148 149 16 0
-149 150 0
-149 152 0
-150 -13 151 0
-150 -151 13 0
-152 -153 16 0
-152 -16 153 0
-154 -69 13 0
-154 69 155 0
-155 -74 13 0
-155 74 156 0
-156 -78 13 0
-156 78 157 0
-157 -82 158 0
-157 82 159 0
-158 -85 13 0
-158 85 69 0
-159 -89 13 0
-159 89 160 0
-160 -92 13 0
-160 92 161 0
-161 -95 13 0
-161 95 162 0
-162 -98 163 0
-162 98 13 0
-163 -100 13 0
-163 100 69 0
-164 -165 118 0
-164 165 180 0
-165 -22 166 0
-165 22 74 0
-166 -30 13 0
-166 30 167 0
-167 -32 168 0
-167 32 74 0
-168 -35 13 0
-168 35 169 0
-169 -56 13 0
-169 56 170 0
-17 -18 20 0
-17 18 118 0
-170 -69 16 0
-170 69 171 0
-171 -74 13 0
-171 74 172 0
-172 -78 13 0
-172 78 173 0
-173 -82 174 0
-173 82 175 0
-174 -85 13 0
-174 85 74 0
-175 -89 13 0
-175 89 176 0
-176 -92 13 0
-176 92 177 0
-177 -95 13 0
-177 95 178 0
-178 -98 179 0
-178 98 13 0
-179 -100 13 0
-179 100 74 0
-18 19 0
-18 3 0
-180 -181 196 0
-180 181 197 0
-181 -22 182 0
-181 22 78 0
-182 -30 13 0
-182 30 183 0
-183 -32 184 0
-183 32 78 0
-184 -35 13 0
-184 35 185 0
-185 -56 13 0
-185 56 186 0
-186 -69 13 0
-186 69 187 0
-187 -74 16 0
-187 74 188 0
-188 -78 13 0
-188 78 189 0
-189 -82 190 0
-189 82 191 0
-19 -16 5 0
-19 -5 16 0
-190 -85 13 0
-190 85 78 0
-191 -89 13 0
-191 89 192 0
-192 -92 13 0
-192 92 193 0
-193 -95 13 0
-193 95 194 0
-194 -98 195 0
-194 98 13 0
-195 -100 13 0
-195 100 78 0
-196 -13 15 0
-196 -15 13 0
-197 -198 217 0
-197 198 223 0
-198 -22 199 0
-198 22 82 0
-199 -30 13 0
-199 30 200 0
-2 3 7 0
-20 -21 14 0
-20 21 101 0
-200 -32 201 0
-200 32 82 0
-201 -35 13 0
-201 35 202 0
-202 -56 203 0
-202 56 207 0
-203 -61 13 0
-203 61 204 0
-204 -66 205 0
-204 66 13 0
-205 -129 206 0
-205 129 16 0
-206 -149 16 0
-206 149 13 0
-207 -69 13 0
-207 69 208 0
-208 -74 13 0
-208 74 209 0
-209 -78 16 0
-209 78 210 0
-21 -22 29 0
-21 22 35 0
-210 -82 211 0
-210 82 212 0
-211 -85 13 0
-211 85 82 0
-212 -89 13 0
-212 89 213 0
-213 -92 13 0
-213 92 214 0
-214 -95 13 0
-214 95 215 0
-215 -98 216 0
-215 98 13 0
-216 -100 13 0
-216 100 82 0
-217 -218 14 0
-217 218 118 0
-218 219 0
-218 221 0
-219 -16 220 0
-219 -220 16 0
-22 23 26 0
-221 -16 222 0
-221 -222 16 0
-223 -224 118 0
-223 224 240 0
-224 -22 225 0
-224 22 89 0
-225 -30 13 0
-225 30 226 0
-226 -32 227 0
-226 32 89 0
-227 -35 13 0
-227 35 228 0
-228 -56 229 0
-228 56 230 0
-229 -61 16 0
-229 61 13 0
-23 -24 0
-230 -69 13 0
-230 69 231 0
-231 -74 13 0
-231 74 232 0
-232 -78 13 0
-232 78 233 0
-233 -82 234 0
-233 82 235 0
-234 -85 13 0
-234 85 89 0
-235 -89 13 0
-235 89 236 0
-236 -92 13 0
-236 92 237 0
-237 -95 13 0
-237 95 238 0
-238 -98 239 0
-238 98 13 0
-239 -100 13 0
-239 100 89 0
-24 -25 6 0
-24 -6 25 0
-240 -241 118 0
-240 241 256 0
-241 -22 242 0
-241 22 92 0
-242 -30 13 0
-242 30 243 0
-243 -32 244 0
-243 32 92 0
-244 -35 13 0
-244 35 245 0
-245 -56 13 0
-245 56 246 0
-246 -69 13 0
-246 69 247 0
-247 -74 13 0
-247 74 248 0
-248 -78 13 0
-248 78 249 0
-249 -82 250 0
-249 82 251 0
-250 -85 13 0
-250 85 92 0
-251 -89 16 0
-251 89 252 0
-252 -92 13 0
-252 92 253 0
-253 -95 13 0
-253 95 254 0
-254 -98 255 0
-254 98 13 0
-255 -100 13 0
-255 100 92 0
-256 -257 196 0
-256 257 272 0
-257 -22 258 0
-257 22 95 0
-258 -30 13 0
-258 30 259 0
-259 -32 260 0
-259 32 95 0
-26 -27 0
-260 -35 13 0
-260 35 261 0
-261 -56 13 0
-261 56 262 0
-262 -69 13 0
-262 69 263 0
-263 -74 13 0
-263 74 264 0
-264 -78 13 0
-264 78 265 0
-265 -82 266 0
-265 82 267 0
-266 -85 13 0
-266 85 95 0
-267 -89 13 0
-267 89 268 0
-268 -92 16 0
-268 92 269 0
-269 -95 13 0
-269 95 270 0
-27 -10 28 0
-27 -28 10 0
-270 -98 271 0
-270 98 13 0
-271 -100 13 0
-271 100 95 0
-272 -273 288 0
-272 273 14 0
-273 -22 274 0
-273 22 98 0
-274 -30 13 0
-274 30 275 0
-275 -32 276 0
-275 32 98 0
-276 -35 13 0
-276 35 277 0
-277 -56 13 0
-277 56 278 0
-278 -69 13 0
-278 69 279 0
-279 -74 13 0
-279 74 280 0
-280 -78 13 0
-280 78 281 0
-281 -82 282 0
-281 82 283 0
-282 -85 13 0
-282 85 98 0
-283 -89 13 0
-283 89 284 0
-284 -92 13 0
-284 92 285 0
-285 -95 16 0
-285 95 286 0
-286 -98 287 0
-286 98 13 0
-287 -100 13 0
-287 100 98 0
-288 -289 14 0
-288 289 118 0
-289 290 219 0
-29 -30 16 0
-29 30 31 0
-290 -16 291 0
-290 -291 16 0
-3 -4 0
-30 -10 13 0
-30 -13 10 0
-31 -32 34 0
-31 32 35 0
-32 23 0
-32 33 0
-33 -16 6 0
-33 -6 16 0
-34 -35 46 0
-34 35 55 0
-35 36 0
-35 44 0
-36 37 0
-36 42 0
-37 38 0
-37 40 0
-38 -13 39 0
-38 -39 13 0
-4 -5 6 0
-4 -6 5 0
-40 -13 41 0
-40 -41 13 0
-42 -13 43 0
-42 -43 13 0
-44 -13 45 0
-44 -45 13 0
-46 -47 13 0
-46 47 16 0
-47 48 53 0
-48 49 0
-48 51 0
-49 -13 50 0
-49 -50 13 0
-51 -13 52 0
-51 -52 13 0
-53 -13 54 0
-53 -54 13 0
-55 -56 60 0
-55 56 68 0
-56 44 0
-56 57 0
-57 42 0
-57 58 0
-58 40 0
-58 59 0
-59 -16 39 0
-59 -39 16 0
-60 -61 13 0
-60 61 65 0
-61 62 0
-61 63 0
-62 49 0
-62 53 0
-63 -16 64 0
-63 -64 16 0
-65 -66 13 0
-65 66 16 0
-66 48 0
-66 67 0
-67 -16 54 0
-67 -54 16 0
-68 -69 13 0
-68 69 73 0
-69 44 0
-69 70 0
-7 -8 0
-70 42 0
-70 71 0
-71 38 0
-71 72 0
-72 -16 41 0
-72 -41 16 0
-73 -74 13 0
-73 74 77 0
-74 44 0
-74 75 0
-75 42 0
-75 76 0
-76 59 0
-76 72 0
-77 -78 13 0
-77 78 81 0
-78 44 0
-78 79 0
-79 37 0
-79 80 0
-8 -10 9 0
-8 -9 10 0
-80 -16 43 0
-80 -43 16 0
-81 -82 84 0
-81 82 88 0
-82 44 0
-82 83 0
-83 58 0
-83 80 0
-84 -85 16 0
-84 85 35 0
-85 86 0
-85 87 0
-86 -16 50 0
-86 -50 16 0
-87 -16 52 0
-87 -52 16 0
-88 -89 13 0
-88 89 91 0
-89 44 0
-89 90 0
-90 71 0
-90 80 0
-91 -92 13 0
-91 92 94 0
-92 44 0
-92 93 0
-93 76 0
-93 80 0
-94 -95 13 0
-94 95 97 0
-95 36 0
-95 96 0
-96 -16 45 0
-96 -45 16 0
-97 -98 99 0
-97 98 16 0
-98 57 0
-98 96 0
-99 -100 16 0
-99 100 35 0
1 -11 -118 0
1 -2 -11 0
1 0
1 2 -118 0
100 -67 0
100 -86 0
101 -102 -118 0
101 -118 -120 0
101 102 -120 0
102 -103 -56 0
102 -22 -103 0
102 22 -56 0
103 -13 -104 0
103 -30 -13 0
103 30 -104 0
104 -105 -56 0
104 -32 -105 0
104 32 -56 0
105 -106 -107 0
105 -35 -106 0
105 35 -107 0
106 -16 -13 0
106 -47 -16 0
106 47 -13 0
107 -13 -108 0
107 -56 -13 0
107 56 -108 0
108 -13 -109 0
108 -69 -13 0
108 69 -109 0
109 -13 -110 0
109 -74 -13 0
109 74 -110 0
11 -12 -14 0
11 -14 -17 0
11 12 -17 0
110 -13 -111 0
110 -78 -13 0
110 78 -111 0
111 -112 -113 0
111 -82 -112 0
111 82 -113 0
112 -13 -56 0
112 -85 -13 0
112 85 -56 0
113 -13 -114 0
113 -89 -13 0
113 89 -114 0
114 -13 -115 0
114 -92 -13 0
114 92 -115 0
115 -13 -116 0
115 -95 -13 0
115 95 -116 0
116 -117 -13 0
116 -98 -117 0
116 98 -13 0
117 -100 -13 0
117 -13 -56 0
117 100 -56 0
118 -15 -119 0
118 15 119 0
12 -9 -13 0
12 9 13 0
120 -118 -164 0
120 -121 -118 0
120 121 -164 0
121 -122 -69 0
121 -22 -122 0
121 22 -69 0
122 -13 -123 0
122 -30 -13 0
122 30 -123 0
123 -124 -69 0
123 -32 -124 0
123 32 -69 0
124 -13 -125 0
124 -35 -13 0
124 35 -125 0
125 -126 -154 0
125 -56 -126 0
125 56 -154 0
126 -13 -127 0
126 -61 -13 0
126 61 -127 0
127 -128 -13 0
127 -66 -128 0
127 66 -13 0
128 -129 -148 0
128 -148 -13 0
128 129 -13 0
129 -130 -145 0
130 -131 -142 0
131 -132 -139 0
132 -133 -136 0
133 -134 -135 0
133 134 135 0
136 -137 -138 0
136 137 138 0
139 -140 -141 0
139 140 141 0
14 -15 -16 0
14 15 16 0
142 -143 -144 0
142 143 144 0
145 -146 -147 0
145 146 147 0
148 -13 -16 0
148 -149 -13 0
148 149 -16 0
149 -150 -152 0
150 -151 -13 0
150 151 13 0
152 -153 -16 0
152 153 16 0
154 -13 -155 0
154 -69 -13 0
154 69 -155 0
155 -13 -156 0
155 -74 -13 0
155 74 -156 0
156 -13 -157 0
156 -78 -13 0
156 78 -157 0
157 -158 -159 0
157 -82 -158 0
157 82 -159 0
158 -13 -69 0
158 -85 -13 0
158 85 -69 0
159 -13 -160 0
159 -89 -13 0
159 89 -160 0
16 0
160 -13 -161 0
160 -92 -13 0
160 92 -161 0
161 -13 -162 0
161 -95 -13 0
161 95 -162 0
162 -163 -13 0
162 -98 -163 0
162 98 -13 0
163 -100 -13 0
163 -13 -69 0
163 100 -69 0
164 -118 -180 0
164 -165 -118 0
164 165 -180 0
165 -166 -74 0
165 -22 -166 0
165 22 -74 0
166 -13 -167 0
166 -30 -13 0
166 30 -167 0
167 -168 -74 0
167 -32 -168 0
167 32 -74 0
168 -13 -169 0
168 -35 -13 0
168 35 -169 0
169 -13 -170 0
169 -56 -13 0
169 56 -170 0
17 -18 -20 0
17 -20 -118 0
17 18 -118 0
170 -16 -171 0
170 -69 -16 0
170 69 -171 0
171 -13 -172 0
171 -74 -13 0
171 74 -172 0
172 -13 -173 0
172 -78 -13 0
172 78 -173 0
173 -174 -175 0
173 -82 -174 0
173 82 -175 0
174 -13 -74 0
174 -85 -13 0
174 85 -74 0
175 -13 -176 0
175 -89 -13 0
175 89 -176 0
176 -13 -177 0
176 -92 -13 0
176 92 -177 0
177 -13 -178 0
177 -95 -13 0
177 95 -178 0
178 -179 -13 0
178 -98 -179 0
178 98 -13 0
179 -100 -13 0
179 -13 -74 0
179 100 -74 0
18 -3 -19 0
180 -181 -196 0
180 -196 -197 0
180 181 -197 0
181 -182 -78 0
181 -22 -182 0
181 22 -78 0
182 -13 -183 0
182 -30 -13 0
182 30 -183 0
183 -184 -78 0
183 -32 -184 0
183 32 -78 0
184 -13 -185 0
184 -35 -13 0
184 35 -185 0
185 -13 -186 0
185 -56 -13 0
185 56 -186 0
186 -13 -187 0
186 -69 -13 0
186 69 -187 0
187 -16 -188 0
187 -74 -16 0
187 74 -188 0
188 -13 -189 0
188 -78 -13 0
188 78 -189 0
189 -190 -191 0
189 -82 -190 0
189 82 -191 0
19 -5 -16 0
19 5 16 0
190 -13 -78 0
190 -85 -13 0
190 85 -78 0
191 -13 -192 0
191 -89 -13 0
191 89 -192 0
192 -13 -193 0
192 -92 -13 0
192 92 -193 0
193 -13 -194 0
193 -95 -13 0
193 95 -194 0
194 -195 -13 0
194 -98 -195 0
194 98 -13 0
195 -100 -13 0
195 -13 -78 0
195 100 -78 0
196 -15 -13 0
196 15 13 0
197 -198 -217 0
197 -217 -223 0
197 198 -223 0
198 -199 -82 0
198 -22 -199 0
198 22 -82 0
199 -13 -200 0
199 -30 -13 0
199 30 -200 0
2 -3 0
2 -7 0
20 -14 -101 0
20 -21 -14 0
20 21 -101 0
200 -201 -82 0
200 -32 -201 0
200 32 -82 0
201 -13 -202 0
201 -35 -13 0
201 35 -202 0
202 -203 -207 0
202 -56 -203 0
202 56 -207 0
203 -13 -204 0
203 -61 -13 0
203 61 -204 0
204 -205 -13 0
204 -66 -205 0
204 66 -13 0
205 -129 -206 0
205 -206 -16 0
205 129 -16 0
206 -149 -16 0
206 -16 -13 0
206 149 -13 0
207 -13 -208 0
207 -69 -13 0
207 69 -208 0
208 -13 -209 0
208 -74 -13 0
208 74 -209 0
209 -16 -210 0
209 -78 -16 0
209 78 -210 0
21 -22 -29 0
21 -29 -35 0
21 22 -35 0
210 -211 -212 0
210 -82 -211 0
210 82 -212 0
211 -13 -82 0
211 -85 -13 0
211 85 -82 0
212 -13 -213 0
212 -89 -13 0
212 89 -213 0
213 -13 -214 0
213 -92 -13 0
213 92 -214 0
214 -13 -215 0
214 -95 -13 0
214 95 -215 0
215 -216 -13 0
215 -98 -216 0
215 98 -13 0
216 -100 -13 0
216 -13 -82 0
216 100 -82 0
217 -14 -118 0
217 -218 -14 0
217 218 -118 0
218 -219 -221 0
219 -220 -16 0
219 220 16 0
22 -23 0
22 -26 0
221 -222 -16 0
221 222 16 0
223 -118 -240 0
223 -224 -118 0
223 224 -240 0
224 -22 -225 0
224 -225 -89 0
224 22 -89 0
225 -13 -226 0
225 -30 -13 0
225 30 -226 0
226 -227 -89 0
226 -32 -227 0
226 32 -89 0
227 -13 -228 0
227 -35 -13 0
227 35 -228 0
228 -229 -230 0
228 -56 -229 0
228 56 -230 0
229 -16 -13 0
229 -61 -16 0
229 61 -13 0
23 24 0
230 -13 -231 0
230 -69 -13 0
230 69 -231 0
231 -13 -232 0
231 -74 -13 0
231 74 -232 0
232 -13 -233 0
232 -78 -13 0
232 78 -233 0
233 -234 -235 0
233 -82 -234 0
233 82 -235 0
234 -13 -89 0
234 -85 -13 0
234 85 -89 0
235 -13 -236 0
235 -89 -13 0
235 89 -236 0
236 -13 -237 0
236 -92 -13 0
236 92 -237 0
237 -13 -238 0
237 -95 -13 0
237 95 -238 0
238 -239 -13 0
238 -98 -239 0
238 98 -13 0
239 -100 -13 0
239 -13 -89 0
239 100 -89 0
24 -6 -25 0
24 6 25 0
240 -118 -256 0
240 -241 -118 0
240 241 -256 0
241 -22 -242 0
241 -242 -92 0
241 22 -92 0
242 -13 -243 0
242 -30 -13 0
242 30 -243 0
243 -244 -92 0
243 -32 -244 0
243 32 -92 0
244 -13 -245 0
244 -35 -13 0
244 35 -245 0
245 -13 -246 0
245 -56 -13 0
245 56 -246 0
246 -13 -247 0
246 -69 -13 0
246 69 -247 0
247 -13 -248 0
247 -74 -13 0
247 74 -248 0
248 -13 -249 0
248 -78 -13 0
248 78 -249 0
249 -250 -251 0
249 -82 -250 0
249 82 -251 0
250 -13 -92 0
250 -85 -13 0
250 85 -92 0
251 -16 -252 0
251 -89 -16 0
251 89 -252 0
252 -13 -253 0
252 -92 -13 0
252 92 -253 0
253 -13 -254 0
253 -95 -13 0
253 95 -254 0
254 -255 -13 0
254 -98 -255 0
254 98 -13 0
255 -100 -13 0
255 -13 -92 0
255 100 -92 0
256 -196 -272 0
256 -257 -196 0
256 257 -272 0
257 -22 -258 0
257 -258 -95 0
257 22 -95 0
258 -13 -259 0
258 -30 -13 0
258 30 -259 0
259 -260 -95 0
259 -32 -260 0
259 32 -95 0
26 27 0
260 -13 -261 0
260 -35 -13 0
260 35 -261 0
261 -13 -262 0
261 -56 -13 0
261 56 -262 0
262 -13 -263 0
262 -69 -13 0
262 69 -263 0
263 -13 -264 0
263 -74 -13 0
263 74 -264 0
264 -13 -265 0
264 -78 -13 0
264 78 -265 0
265 -266 -267 0
265 -82 -266 0
265 82 -267 0
266 -13 -95 0
266 -85 -13 0
266 85 -95 0
267 -13 -268 0
267 -89 -13 0
267 89 -268 0
268 -16 -269 0
268 -92 -16 0
268 92 -269 0
269 -13 -270 0
269 -95 -13 0
269 95 -270 0
27 -10 -28 0
27 10 28 0
270 -271 -13 0
270 -98 -271 0
270 98 -13 0
271 -100 -13 0
271 -13 -95 0
271 100 -95 0
272 -273 -288 0
272 -288 -14 0
272 273 -14 0
273 -22 -274 0
273 -274 -98 0
273 22 -98 0
274 -13 -275 0
274 -30 -13 0
274 30 -275 0
275 -276 -98 0
275 -32 -276 0
275 32 -98 0
276 -13 -277 0
276 -35 -13 0
276 35 -277 0
277 -13 -278 0
277 -56 -13 0
277 56 -278 0
278 -13 -279 0
278 -69 -13 0
278 69 -279 0
279 -13 -280 0
279 -74 -13 0
279 74 -280 0
280 -13 -281 0
280 -78 -13 0
280 78 -281 0
281 -282 -283 0
281 -82 -282 0
281 82 -283 0
282 -13 -98 0
282 -85 -13 0
282 85 -98 0
283 -13 -284 0
283 -89 -13 0
283 89 -284 0
284 -13 -285 0
284 -92 -13 0
284 92 -285 0
285 -16 -286 0
285 -95 -16 0
285 95 -286 0
286 -287 -13 0
286 -98 -287 0
286 98 -13 0
287 -100 -13 0
287 -13 -98 0
287 100 -98 0
288 -14 -118 0
288 -289 -14 0
288 289 -118 0
289 -219 0
289 -290 0
29 -16 -31 0
29 -30 -16 0
29 30 -31 0
290 -291 -16 0
290 291 16 0
3 4 0
30 -10 -13 0
30 10 13 0
31 -32 -34 0
31 -34 -35 0
31 32 -35 0
32 -23 -33 0
33 -6 -16 0
33 6 16 0
34 -35 -46 0
34 -46 -55 0
34 35 -55 0
35 -36 -44 0
36 -37 -42 0
37 -38 -40 0
38 -39 -13 0
38 39 13 0
4 -5 -6 0
4 5 6 0
40 -41 -13 0
40 41 13 0
42 -43 -13 0
42 43 13 0
44 -45 -13 0
44 45 13 0
46 -13 -16 0
46 -47 -13 0
46 47 -16 0
47 -48 0
47 -53 0
48 -49 -51 0
49 -50 -13 0
49 50 13 0
51 -52 -13 0
51 52 13 0
53 -54 -13 0
53 54 13 0
55 -56 -60 0
55 -60 -68 0
55 56 -68 0
56 -57 -44 0
57 -58 -42 0
58 -59 -40 0
59 -39 -16 0
59 39 16 0
60 -13 -65 0
60 -61 -13 0
60 61 -65 0
61 -62 -63 0
62 -53 -49 0
63 -64 -16 0
63 64 16 0
65 -13 -16 0
65 -66 -13 0
65 66 -16 0
66 -48 -67 0
67 -54 -16 0
67 54 16 0
68 -13 -73 0
68 -69 -13 0
68 69 -73 0
69 -70 -44 0
7 8 0
70 -71 -42 0
71 -38 -72 0
72 -41 -16 0
72 41 16 0
73 -13 -77 0
73 -74 -13 0
73 74 -77 0
74 -75 -44 0
75 -76 -42 0
76 -59 -72 0
77 -13 -81 0
77 -78 -13 0
77 78 -81 0
78 -79 -44 0
79 -37 -80 0
8 -9 -10 0
8 9 10 0
80 -43 -16 0
80 43 16 0
81 -82 -84 0
81 -84 -88 0
81 82 -88 0
82 -83 -44 0
83 -58 -80 0
84 -16 -35 0
84 -85 -16 0
84 85 -35 0
85 -86 -87 0
86 -50 -16 0
86 50 16 0
87 -52 -16 0
87 52 16 0
88 -13 -91 0
88 -89 -13 0
88 89 -91 0
89 -90 -44 0
90 -71 -80 0
91 -13 -94 0
91 -92 -13 0
91 92 -94 0
92 -93 -44 0
93 -76 -80 0
94 -13 -97 0
94 -95 -13 0
94 95 -97 0
95 -36 -96 0
96 -45 -16 0
96 45 16 0
97 -98 -99 0
97 -99 -16 0
97 98 -16 0
98 -57 -96 0
99 -100 -16 0
99 -16 -35 0
99 100 -35 0
